c This is an instance of the heur track of PACE 2020 Challenge, see https://pacechallenge.org/2020/ 
c TYPE: generated 
c ORIGIN: Python networkx package 
c DESCRIPTION: A  Margulis-Gabber-Galil undirected graph (8-regular expander with multiple edges removed) on n^2 nodes. Generated using margulis_gabber_galil_graph from Python’s networkx package 
p tdp 100 340
1 2
1 3
1 26
1 99
2 29
2 30
2 31
2 38
2 40
3 4
3 5
3 6
3 74
3 82
4 33
4 47
4 39
4 18
4 50
4 90
5 32
5 47
5 61
5 60
5 62
5 67
5 55
6 7
6 8
6 9
6 35
7 64
7 75
7 59
7 33
7 76
7 77
8 30
8 47
8 75
8 83
9 10
9 11
9 12
9 66
9 76
10 81
10 61
10 51
10 66
10 85
10 69
10 52
11 31
11 66
11 76
11 57
11 25
11 97
12 13
12 14
12 15
12 34
12 46
13 91
13 96
13 95
13 82
13 70
13 44
13 14
14 34
14 96
14 75
14 52
14 100
14 93
15 16
15 17
15 100
16 30
16 31
16 39
16 38
16 40
17 18
17 19
17 20
17 79
17 86
18 48
18 41
18 56
18 29
18 93
19 37
19 45
19 56
19 69
19 63
19 66
19 65
20 21
20 22
20 23
20 43
21 70
21 80
21 68
21 41
21 72
21 73
22 38
22 56
22 80
22 87
23 24
23 25
23 26
23 62
23 72
24 85
24 69
24 53
24 62
24 81
24 61
24 58
25 40
25 96
25 62
25 72
25 49
26 27
26 28
26 42
26 54
27 64
27 36
27 94
27 97
27 98
27 86
27 28
28 42
28 99
28 90
28 97
28 80
28 58
29 45
29 46
29 39
30 35
30 34
30 42
30 49
31 32
31 36
31 37
31 76
31 83
32 33
32 34
32 40
32 42
32 82
32 90
33 61
33 74
33 73
33 59
33 76
34 37
34 38
34 46
34 67
35 48
35 81
35 91
35 85
35 94
36 51
36 76
36 83
36 95
36 86
36 70
37 41
37 40
37 42
37 86
37 93
38 43
38 42
38 57
39 55
39 54
40 44
40 72
40 87
41 69
41 79
41 77
41 68
41 72
42 54
42 65
43 50
43 91
43 85
43 94
43 81
44 53
44 82
44 64
44 72
44 87
44 98
45 59
45 60
45 66
45 67
46 53
46 54
46 67
46 77
47 71
47 74
47 82
48 49
48 50
48 53
48 64
49 63
49 79
49 57
50 51
50 57
50 70
51 52
51 53
51 54
51 83
52 66
52 83
52 90
52 75
52 100
53 58
53 87
54 65
54 73
55 68
55 63
55 62
55 65
56 78
56 79
56 86
57 60
57 74
58 62
58 99
58 87
58 93
58 80
59 71
59 72
59 73
60 70
60 66
60 67
60 80
61 82
61 90
61 91
61 94
62 63
62 67
63 64
63 65
63 75
64 98
64 86
65 66
65 73
65 88
67 77
67 84
68 78
68 76
68 77
69 91
69 86
69 93
69 94
70 95
70 82
71 81
71 88
72 73
73 88
73 94
74 90
74 92
74 79
75 99
75 90
76 77
77 84
77 91
78 84
78 85
79 93
79 89
80 100
80 93
81 89
82 98
83 84
84 91
84 96
85 92
86 95
87 88
88 94
88 97
89 95
89 96
89 92
90 99
91 96
92 98
92 97
93 100
94 97
95 99
96 97
98 100
